%chk=methyl.df-bp86svp.chk
%nproc=4
%mem=16000MB
#P UBP86/def2SVP/W06
DenFit 
opt (MaxCycle=100) scf=(xqc, 
! Comment within an input stack? Crazy, Oh yeah!
MaxConventionalCycle=500) 
int = (ultrafinegrid)
gfinput gfoldprint iop(6/7=3)
symmetry=loose
pop = full

Methane DF-BP86/def2-SVP

0 2
C        0.000000000      0.000000000      0.000000000
H        0.630397000      0.630397000      0.630397000
H        0.630397000     -0.630396997     -0.630397003
H       -0.630397003      0.630397000     -0.630396997


