#p BP86/cc-pVTZ
pop=nbo
freq

Water BP86/cc-pVTZ

0 1
O
H 1 1.2
H 1 1.2 2 109.0


