%chk=h2o.b2plyp.def2svp.nbo6.chk
%nproc=8
%mem=32000MB
#p b2plyp/def2SVP
opt scf(xqc)
gfinput gfoldprint iop(6/7=3)
scrf(pcm,solvent=toluene)
pop=full pop=nbo6 pop=allorbitals
symmetry=loose

Water B2PLYP/def2-SVP

0 1
O
H 1 bond
H 1 bond 2 angle

bond     1.2
angle  109.0


