%chk=h2o.ccsdt.def2svp.chk
%nproc=8
%mem=32000MB
#p CCSD-T/def2SVP
scf(xqc)
gfinput gfoldprint iop(6/7=3)
scrf(pcm,solvent=toluene)
pop=full pop=nbo6 pop=allorbitals
symmetry=loose

Water CCSD(T)/def2-SVP

0 1
O
H 1 bond
H 1 bond 2 angle

bond     1.2
angle  109.0


